\ LP format - for model browsing. Use MPS format to capture full model detail.
Minimize
  p0 + p1 + p2 + p3 + p4 + p5 + p6
Subject To
 R0: x0,1_2 + x0,2_2 + x0,3_2 + x0,4_2 + x0,5_2 + x0,6_2 + x1,2_2 + x1,3_2
   + x1,4_2 + x1,5_2 + x1,6_2 + x2,3_2 + x2,4_2 + x2,5_2 + x2,6_2 + x3,4_2
   + x3,5_2 + x3,6_2 + x4,5_2 + x4,6_2 + x5,6_2 = 1
 R1: x0,1_6 + x0,2_6 + x0,3_6 + x0,4_6 + x0,5_6 + x0,6_6 + x1,2_6 + x1,3_6
   + x1,4_6 + x1,5_6 + x1,6_6 + x2,3_6 + x2,4_6 + x2,5_6 + x2,6_6 + x3,4_6
   + x3,5_6 + x3,6_6 + x4,5_6 + x4,6_6 + x5,6_6 = 1
 R2: x0,1_11 + x0,2_11 + x0,3_11 + x0,4_11 + x0,5_11 + x0,6_11 + x1,2_11
   + x1,3_11 + x1,4_11 + x1,5_11 + x1,6_11 + x2,3_11 + x2,4_11 + x2,5_11
   + x2,6_11 + x3,4_11 + x3,5_11 + x3,6_11 + x4,5_11 + x4,6_11 + x5,6_11
   = 1
 R3: x0,1_12 + x0,2_12 + x0,3_12 + x0,4_12 + x0,5_12 + x0,6_12 + x1,2_12
   + x1,3_12 + x1,4_12 + x1,5_12 + x1,6_12 + x2,3_12 + x2,4_12 + x2,5_12
   + x2,6_12 + x3,4_12 + x3,5_12 + x3,6_12 + x4,5_12 + x4,6_12 + x5,6_12
   = 1
 R4: x0,1_13 + x0,2_13 + x0,3_13 + x0,4_13 + x0,5_13 + x0,6_13 + x1,2_13
   + x1,3_13 + x1,4_13 + x1,5_13 + x1,6_13 + x2,3_13 + x2,4_13 + x2,5_13
   + x2,6_13 + x3,4_13 + x3,5_13 + x3,6_13 + x4,5_13 + x4,6_13 + x5,6_13
   = 1
 R5: x0,1_14 + x0,2_14 + x0,3_14 + x0,4_14 + x0,5_14 + x0,6_14 + x1,2_14
   + x1,3_14 + x1,4_14 + x1,5_14 + x1,6_14 + x2,3_14 + x2,4_14 + x2,5_14
   + x2,6_14 + x3,4_14 + x3,5_14 + x3,6_14 + x4,5_14 + x4,6_14 + x5,6_14
   = 2
 R6: x0,1_18 + x0,2_18 + x0,3_18 + x0,4_18 + x0,5_18 + x0,6_18 + x1,2_18
   + x1,3_18 + x1,4_18 + x1,5_18 + x1,6_18 + x2,3_18 + x2,4_18 + x2,5_18
   + x2,6_18 + x3,4_18 + x3,5_18 + x3,6_18 + x4,5_18 + x4,6_18 + x5,6_18
   = 1
 R7: x0,1_20 + x0,2_20 + x0,3_20 + x0,4_20 + x0,5_20 + x0,6_20 + x1,2_20
   + x1,3_20 + x1,4_20 + x1,5_20 + x1,6_20 + x2,3_20 + x2,4_20 + x2,5_20
   + x2,6_20 + x3,4_20 + x3,5_20 + x3,6_20 + x4,5_20 + x4,6_20 + x5,6_20
   = 2
 R8: x0,1_25 + x0,2_25 + x0,3_25 + x0,4_25 + x0,5_25 + x0,6_25 + x1,2_25
   + x1,3_25 + x1,4_25 + x1,5_25 + x1,6_25 + x2,3_25 + x2,4_25 + x2,5_25
   + x2,6_25 + x3,4_25 + x3,5_25 + x3,6_25 + x4,5_25 + x4,6_25 + x5,6_25
   = 1
 R9: x0,1_31 + x0,2_31 + x0,3_31 + x0,4_31 + x0,5_31 + x0,6_31 + x1,2_31
   + x1,3_31 + x1,4_31 + x1,5_31 + x1,6_31 + x2,3_31 + x2,4_31 + x2,5_31
   + x2,6_31 + x3,4_31 + x3,5_31 + x3,6_31 + x4,5_31 + x4,6_31 + x5,6_31
   = 1
 R10: x0,1_32 + x0,2_32 + x0,3_32 + x0,4_32 + x0,5_32 + x0,6_32 + x1,2_32
   + x1,3_32 + x1,4_32 + x1,5_32 + x1,6_32 + x2,3_32 + x2,4_32 + x2,5_32
   + x2,6_32 + x3,4_32 + x3,5_32 + x3,6_32 + x4,5_32 + x4,6_32 + x5,6_32
   = 1
 R11: x0,1_34 + x0,2_34 + x0,3_34 + x0,4_34 + x0,5_34 + x0,6_34 + x1,2_34
   + x1,3_34 + x1,4_34 + x1,5_34 + x1,6_34 + x2,3_34 + x2,4_34 + x2,5_34
   + x2,6_34 + x3,4_34 + x3,5_34 + x3,6_34 + x4,5_34 + x4,6_34 + x5,6_34
   = 1
 R12: x0,1_45 + x0,2_45 + x0,3_45 + x0,4_45 + x0,5_45 + x0,6_45 + x1,2_45
   + x1,3_45 + x1,4_45 + x1,5_45 + x1,6_45 + x2,3_45 + x2,4_45 + x2,5_45
   + x2,6_45 + x3,4_45 + x3,5_45 + x3,6_45 + x4,5_45 + x4,6_45 + x5,6_45
   = 1
 R13: x0,1_2 + x0,1_6 + x0,1_11 + x0,1_12 + x0,1_13 + x0,1_14 + x0,1_18
   + x0,1_20 + x0,1_25 + x0,1_31 + x0,1_32 + x0,1_34 + x0,1_45 <= 1
 R14: x0,2_2 + x0,2_6 + x0,2_11 + x0,2_12 + x0,2_13 + x0,2_14 + x0,2_18
   + x0,2_20 + x0,2_25 + x0,2_31 + x0,2_32 + x0,2_34 + x0,2_45 <= 1
 R15: x0,3_2 + x0,3_6 + x0,3_11 + x0,3_12 + x0,3_13 + x0,3_14 + x0,3_18
   + x0,3_20 + x0,3_25 + x0,3_31 + x0,3_32 + x0,3_34 + x0,3_45 <= 1
 R16: x0,4_2 + x0,4_6 + x0,4_11 + x0,4_12 + x0,4_13 + x0,4_14 + x0,4_18
   + x0,4_20 + x0,4_25 + x0,4_31 + x0,4_32 + x0,4_34 + x0,4_45 <= 1
 R17: x0,5_2 + x0,5_6 + x0,5_11 + x0,5_12 + x0,5_13 + x0,5_14 + x0,5_18
   + x0,5_20 + x0,5_25 + x0,5_31 + x0,5_32 + x0,5_34 + x0,5_45 <= 1
 R18: x0,6_2 + x0,6_6 + x0,6_11 + x0,6_12 + x0,6_13 + x0,6_14 + x0,6_18
   + x0,6_20 + x0,6_25 + x0,6_31 + x0,6_32 + x0,6_34 + x0,6_45 <= 1
 R19: x1,2_2 + x1,2_6 + x1,2_11 + x1,2_12 + x1,2_13 + x1,2_14 + x1,2_18
   + x1,2_20 + x1,2_25 + x1,2_31 + x1,2_32 + x1,2_34 + x1,2_45 <= 1
 R20: x1,3_2 + x1,3_6 + x1,3_11 + x1,3_12 + x1,3_13 + x1,3_14 + x1,3_18
   + x1,3_20 + x1,3_25 + x1,3_31 + x1,3_32 + x1,3_34 + x1,3_45 <= 1
 R21: x1,4_2 + x1,4_6 + x1,4_11 + x1,4_12 + x1,4_13 + x1,4_14 + x1,4_18
   + x1,4_20 + x1,4_25 + x1,4_31 + x1,4_32 + x1,4_34 + x1,4_45 <= 1
 R22: x1,5_2 + x1,5_6 + x1,5_11 + x1,5_12 + x1,5_13 + x1,5_14 + x1,5_18
   + x1,5_20 + x1,5_25 + x1,5_31 + x1,5_32 + x1,5_34 + x1,5_45 <= 1
 R23: x1,6_2 + x1,6_6 + x1,6_11 + x1,6_12 + x1,6_13 + x1,6_14 + x1,6_18
   + x1,6_20 + x1,6_25 + x1,6_31 + x1,6_32 + x1,6_34 + x1,6_45 <= 1
 R24: x2,3_2 + x2,3_6 + x2,3_11 + x2,3_12 + x2,3_13 + x2,3_14 + x2,3_18
   + x2,3_20 + x2,3_25 + x2,3_31 + x2,3_32 + x2,3_34 + x2,3_45 <= 1
 R25: x2,4_2 + x2,4_6 + x2,4_11 + x2,4_12 + x2,4_13 + x2,4_14 + x2,4_18
   + x2,4_20 + x2,4_25 + x2,4_31 + x2,4_32 + x2,4_34 + x2,4_45 <= 1
 R26: x2,5_2 + x2,5_6 + x2,5_11 + x2,5_12 + x2,5_13 + x2,5_14 + x2,5_18
   + x2,5_20 + x2,5_25 + x2,5_31 + x2,5_32 + x2,5_34 + x2,5_45 <= 1
 R27: x2,6_2 + x2,6_6 + x2,6_11 + x2,6_12 + x2,6_13 + x2,6_14 + x2,6_18
   + x2,6_20 + x2,6_25 + x2,6_31 + x2,6_32 + x2,6_34 + x2,6_45 <= 1
 R28: x3,4_2 + x3,4_6 + x3,4_11 + x3,4_12 + x3,4_13 + x3,4_14 + x3,4_18
   + x3,4_20 + x3,4_25 + x3,4_31 + x3,4_32 + x3,4_34 + x3,4_45 <= 1
 R29: x3,5_2 + x3,5_6 + x3,5_11 + x3,5_12 + x3,5_13 + x3,5_14 + x3,5_18
   + x3,5_20 + x3,5_25 + x3,5_31 + x3,5_32 + x3,5_34 + x3,5_45 <= 1
 R30: x3,6_2 + x3,6_6 + x3,6_11 + x3,6_12 + x3,6_13 + x3,6_14 + x3,6_18
   + x3,6_20 + x3,6_25 + x3,6_31 + x3,6_32 + x3,6_34 + x3,6_45 <= 1
 R31: x4,5_2 + x4,5_6 + x4,5_11 + x4,5_12 + x4,5_13 + x4,5_14 + x4,5_18
   + x4,5_20 + x4,5_25 + x4,5_31 + x4,5_32 + x4,5_34 + x4,5_45 <= 1
 R32: x4,6_2 + x4,6_6 + x4,6_11 + x4,6_12 + x4,6_13 + x4,6_14 + x4,6_18
   + x4,6_20 + x4,6_25 + x4,6_31 + x4,6_32 + x4,6_34 + x4,6_45 <= 1
 R33: x5,6_2 + x5,6_6 + x5,6_11 + x5,6_12 + x5,6_13 + x5,6_14 + x5,6_18
   + x5,6_20 + x5,6_25 + x5,6_31 + x5,6_32 + x5,6_34 + x5,6_45 <= 1
 R34: p0 - p1 <= -1
 R35: - 2 x0,1_2 - p0 + p1 >= 0
 R36: 297 x0,1_2 - p0 + p1 <= 299
 R37: - 6 x0,1_6 - p0 + p1 >= 0
 R38: 297 x0,1_6 - p0 + p1 <= 303
 R39: - 11 x0,1_11 - p0 + p1 >= 0
 R40: 297 x0,1_11 - p0 + p1 <= 308
 R41: - 12 x0,1_12 - p0 + p1 >= 0
 R42: 297 x0,1_12 - p0 + p1 <= 309
 R43: - 13 x0,1_13 - p0 + p1 >= 0
 R44: 297 x0,1_13 - p0 + p1 <= 310
 R45: - 14 x0,1_14 - p0 + p1 >= 0
 R46: 297 x0,1_14 - p0 + p1 <= 311
 R47: - 18 x0,1_18 - p0 + p1 >= 0
 R48: 297 x0,1_18 - p0 + p1 <= 315
 R49: - 20 x0,1_20 - p0 + p1 >= 0
 R50: 297 x0,1_20 - p0 + p1 <= 317
 R51: - 25 x0,1_25 - p0 + p1 >= 0
 R52: 297 x0,1_25 - p0 + p1 <= 322
 R53: - 31 x0,1_31 - p0 + p1 >= 0
 R54: 297 x0,1_31 - p0 + p1 <= 328
 R55: - 32 x0,1_32 - p0 + p1 >= 0
 R56: 297 x0,1_32 - p0 + p1 <= 329
 R57: - 34 x0,1_34 - p0 + p1 >= 0
 R58: 297 x0,1_34 - p0 + p1 <= 331
 R59: - 45 x0,1_45 - p0 + p1 >= 0
 R60: 297 x0,1_45 - p0 + p1 <= 342
 R61: p0 - p2 <= -1
 R62: - 2 x0,2_2 - p0 + p2 >= 0
 R63: 297 x0,2_2 - p0 + p2 <= 299
 R64: - 6 x0,2_6 - p0 + p2 >= 0
 R65: 297 x0,2_6 - p0 + p2 <= 303
 R66: - 11 x0,2_11 - p0 + p2 >= 0
 R67: 297 x0,2_11 - p0 + p2 <= 308
 R68: - 12 x0,2_12 - p0 + p2 >= 0
 R69: 297 x0,2_12 - p0 + p2 <= 309
 R70: - 13 x0,2_13 - p0 + p2 >= 0
 R71: 297 x0,2_13 - p0 + p2 <= 310
 R72: - 14 x0,2_14 - p0 + p2 >= 0
 R73: 297 x0,2_14 - p0 + p2 <= 311
 R74: - 18 x0,2_18 - p0 + p2 >= 0
 R75: 297 x0,2_18 - p0 + p2 <= 315
 R76: - 20 x0,2_20 - p0 + p2 >= 0
 R77: 297 x0,2_20 - p0 + p2 <= 317
 R78: - 25 x0,2_25 - p0 + p2 >= 0
 R79: 297 x0,2_25 - p0 + p2 <= 322
 R80: - 31 x0,2_31 - p0 + p2 >= 0
 R81: 297 x0,2_31 - p0 + p2 <= 328
 R82: - 32 x0,2_32 - p0 + p2 >= 0
 R83: 297 x0,2_32 - p0 + p2 <= 329
 R84: - 34 x0,2_34 - p0 + p2 >= 0
 R85: 297 x0,2_34 - p0 + p2 <= 331
 R86: - 45 x0,2_45 - p0 + p2 >= 0
 R87: 297 x0,2_45 - p0 + p2 <= 342
 R88: p0 - p3 <= -1
 R89: - 2 x0,3_2 - p0 + p3 >= 0
 R90: 297 x0,3_2 - p0 + p3 <= 299
 R91: - 6 x0,3_6 - p0 + p3 >= 0
 R92: 297 x0,3_6 - p0 + p3 <= 303
 R93: - 11 x0,3_11 - p0 + p3 >= 0
 R94: 297 x0,3_11 - p0 + p3 <= 308
 R95: - 12 x0,3_12 - p0 + p3 >= 0
 R96: 297 x0,3_12 - p0 + p3 <= 309
 R97: - 13 x0,3_13 - p0 + p3 >= 0
 R98: 297 x0,3_13 - p0 + p3 <= 310
 R99: - 14 x0,3_14 - p0 + p3 >= 0
 R100: 297 x0,3_14 - p0 + p3 <= 311
 R101: - 18 x0,3_18 - p0 + p3 >= 0
 R102: 297 x0,3_18 - p0 + p3 <= 315
 R103: - 20 x0,3_20 - p0 + p3 >= 0
 R104: 297 x0,3_20 - p0 + p3 <= 317
 R105: - 25 x0,3_25 - p0 + p3 >= 0
 R106: 297 x0,3_25 - p0 + p3 <= 322
 R107: - 31 x0,3_31 - p0 + p3 >= 0
 R108: 297 x0,3_31 - p0 + p3 <= 328
 R109: - 32 x0,3_32 - p0 + p3 >= 0
 R110: 297 x0,3_32 - p0 + p3 <= 329
 R111: - 34 x0,3_34 - p0 + p3 >= 0
 R112: 297 x0,3_34 - p0 + p3 <= 331
 R113: - 45 x0,3_45 - p0 + p3 >= 0
 R114: 297 x0,3_45 - p0 + p3 <= 342
 R115: p0 - p4 <= -1
 R116: - 2 x0,4_2 - p0 + p4 >= 0
 R117: 297 x0,4_2 - p0 + p4 <= 299
 R118: - 6 x0,4_6 - p0 + p4 >= 0
 R119: 297 x0,4_6 - p0 + p4 <= 303
 R120: - 11 x0,4_11 - p0 + p4 >= 0
 R121: 297 x0,4_11 - p0 + p4 <= 308
 R122: - 12 x0,4_12 - p0 + p4 >= 0
 R123: 297 x0,4_12 - p0 + p4 <= 309
 R124: - 13 x0,4_13 - p0 + p4 >= 0
 R125: 297 x0,4_13 - p0 + p4 <= 310
 R126: - 14 x0,4_14 - p0 + p4 >= 0
 R127: 297 x0,4_14 - p0 + p4 <= 311
 R128: - 18 x0,4_18 - p0 + p4 >= 0
 R129: 297 x0,4_18 - p0 + p4 <= 315
 R130: - 20 x0,4_20 - p0 + p4 >= 0
 R131: 297 x0,4_20 - p0 + p4 <= 317
 R132: - 25 x0,4_25 - p0 + p4 >= 0
 R133: 297 x0,4_25 - p0 + p4 <= 322
 R134: - 31 x0,4_31 - p0 + p4 >= 0
 R135: 297 x0,4_31 - p0 + p4 <= 328
 R136: - 32 x0,4_32 - p0 + p4 >= 0
 R137: 297 x0,4_32 - p0 + p4 <= 329
 R138: - 34 x0,4_34 - p0 + p4 >= 0
 R139: 297 x0,4_34 - p0 + p4 <= 331
 R140: - 45 x0,4_45 - p0 + p4 >= 0
 R141: 297 x0,4_45 - p0 + p4 <= 342
 R142: p0 - p5 <= -1
 R143: - 2 x0,5_2 - p0 + p5 >= 0
 R144: 297 x0,5_2 - p0 + p5 <= 299
 R145: - 6 x0,5_6 - p0 + p5 >= 0
 R146: 297 x0,5_6 - p0 + p5 <= 303
 R147: - 11 x0,5_11 - p0 + p5 >= 0
 R148: 297 x0,5_11 - p0 + p5 <= 308
 R149: - 12 x0,5_12 - p0 + p5 >= 0
 R150: 297 x0,5_12 - p0 + p5 <= 309
 R151: - 13 x0,5_13 - p0 + p5 >= 0
 R152: 297 x0,5_13 - p0 + p5 <= 310
 R153: - 14 x0,5_14 - p0 + p5 >= 0
 R154: 297 x0,5_14 - p0 + p5 <= 311
 R155: - 18 x0,5_18 - p0 + p5 >= 0
 R156: 297 x0,5_18 - p0 + p5 <= 315
 R157: - 20 x0,5_20 - p0 + p5 >= 0
 R158: 297 x0,5_20 - p0 + p5 <= 317
 R159: - 25 x0,5_25 - p0 + p5 >= 0
 R160: 297 x0,5_25 - p0 + p5 <= 322
 R161: - 31 x0,5_31 - p0 + p5 >= 0
 R162: 297 x0,5_31 - p0 + p5 <= 328
 R163: - 32 x0,5_32 - p0 + p5 >= 0
 R164: 297 x0,5_32 - p0 + p5 <= 329
 R165: - 34 x0,5_34 - p0 + p5 >= 0
 R166: 297 x0,5_34 - p0 + p5 <= 331
 R167: - 45 x0,5_45 - p0 + p5 >= 0
 R168: 297 x0,5_45 - p0 + p5 <= 342
 R169: p0 - p6 <= -1
 R170: - 2 x0,6_2 - p0 + p6 >= 0
 R171: 297 x0,6_2 - p0 + p6 <= 299
 R172: - 6 x0,6_6 - p0 + p6 >= 0
 R173: 297 x0,6_6 - p0 + p6 <= 303
 R174: - 11 x0,6_11 - p0 + p6 >= 0
 R175: 297 x0,6_11 - p0 + p6 <= 308
 R176: - 12 x0,6_12 - p0 + p6 >= 0
 R177: 297 x0,6_12 - p0 + p6 <= 309
 R178: - 13 x0,6_13 - p0 + p6 >= 0
 R179: 297 x0,6_13 - p0 + p6 <= 310
 R180: - 14 x0,6_14 - p0 + p6 >= 0
 R181: 297 x0,6_14 - p0 + p6 <= 311
 R182: - 18 x0,6_18 - p0 + p6 >= 0
 R183: 297 x0,6_18 - p0 + p6 <= 315
 R184: - 20 x0,6_20 - p0 + p6 >= 0
 R185: 297 x0,6_20 - p0 + p6 <= 317
 R186: - 25 x0,6_25 - p0 + p6 >= 0
 R187: 297 x0,6_25 - p0 + p6 <= 322
 R188: - 31 x0,6_31 - p0 + p6 >= 0
 R189: 297 x0,6_31 - p0 + p6 <= 328
 R190: - 32 x0,6_32 - p0 + p6 >= 0
 R191: 297 x0,6_32 - p0 + p6 <= 329
 R192: - 34 x0,6_34 - p0 + p6 >= 0
 R193: 297 x0,6_34 - p0 + p6 <= 331
 R194: - 45 x0,6_45 - p0 + p6 >= 0
 R195: 297 x0,6_45 - p0 + p6 <= 342
 R196: p1 - p2 <= -1
 R197: - 2 x1,2_2 - p1 + p2 >= 0
 R198: 297 x1,2_2 - p1 + p2 <= 299
 R199: - 6 x1,2_6 - p1 + p2 >= 0
 R200: 297 x1,2_6 - p1 + p2 <= 303
 R201: - 11 x1,2_11 - p1 + p2 >= 0
 R202: 297 x1,2_11 - p1 + p2 <= 308
 R203: - 12 x1,2_12 - p1 + p2 >= 0
 R204: 297 x1,2_12 - p1 + p2 <= 309
 R205: - 13 x1,2_13 - p1 + p2 >= 0
 R206: 297 x1,2_13 - p1 + p2 <= 310
 R207: - 14 x1,2_14 - p1 + p2 >= 0
 R208: 297 x1,2_14 - p1 + p2 <= 311
 R209: - 18 x1,2_18 - p1 + p2 >= 0
 R210: 297 x1,2_18 - p1 + p2 <= 315
 R211: - 20 x1,2_20 - p1 + p2 >= 0
 R212: 297 x1,2_20 - p1 + p2 <= 317
 R213: - 25 x1,2_25 - p1 + p2 >= 0
 R214: 297 x1,2_25 - p1 + p2 <= 322
 R215: - 31 x1,2_31 - p1 + p2 >= 0
 R216: 297 x1,2_31 - p1 + p2 <= 328
 R217: - 32 x1,2_32 - p1 + p2 >= 0
 R218: 297 x1,2_32 - p1 + p2 <= 329
 R219: - 34 x1,2_34 - p1 + p2 >= 0
 R220: 297 x1,2_34 - p1 + p2 <= 331
 R221: - 45 x1,2_45 - p1 + p2 >= 0
 R222: 297 x1,2_45 - p1 + p2 <= 342
 R223: p1 - p3 <= -1
 R224: - 2 x1,3_2 - p1 + p3 >= 0
 R225: 297 x1,3_2 - p1 + p3 <= 299
 R226: - 6 x1,3_6 - p1 + p3 >= 0
 R227: 297 x1,3_6 - p1 + p3 <= 303
 R228: - 11 x1,3_11 - p1 + p3 >= 0
 R229: 297 x1,3_11 - p1 + p3 <= 308
 R230: - 12 x1,3_12 - p1 + p3 >= 0
 R231: 297 x1,3_12 - p1 + p3 <= 309
 R232: - 13 x1,3_13 - p1 + p3 >= 0
 R233: 297 x1,3_13 - p1 + p3 <= 310
 R234: - 14 x1,3_14 - p1 + p3 >= 0
 R235: 297 x1,3_14 - p1 + p3 <= 311
 R236: - 18 x1,3_18 - p1 + p3 >= 0
 R237: 297 x1,3_18 - p1 + p3 <= 315
 R238: - 20 x1,3_20 - p1 + p3 >= 0
 R239: 297 x1,3_20 - p1 + p3 <= 317
 R240: - 25 x1,3_25 - p1 + p3 >= 0
 R241: 297 x1,3_25 - p1 + p3 <= 322
 R242: - 31 x1,3_31 - p1 + p3 >= 0
 R243: 297 x1,3_31 - p1 + p3 <= 328
 R244: - 32 x1,3_32 - p1 + p3 >= 0
 R245: 297 x1,3_32 - p1 + p3 <= 329
 R246: - 34 x1,3_34 - p1 + p3 >= 0
 R247: 297 x1,3_34 - p1 + p3 <= 331
 R248: - 45 x1,3_45 - p1 + p3 >= 0
 R249: 297 x1,3_45 - p1 + p3 <= 342
 R250: p1 - p4 <= -1
 R251: - 2 x1,4_2 - p1 + p4 >= 0
 R252: 297 x1,4_2 - p1 + p4 <= 299
 R253: - 6 x1,4_6 - p1 + p4 >= 0
 R254: 297 x1,4_6 - p1 + p4 <= 303
 R255: - 11 x1,4_11 - p1 + p4 >= 0
 R256: 297 x1,4_11 - p1 + p4 <= 308
 R257: - 12 x1,4_12 - p1 + p4 >= 0
 R258: 297 x1,4_12 - p1 + p4 <= 309
 R259: - 13 x1,4_13 - p1 + p4 >= 0
 R260: 297 x1,4_13 - p1 + p4 <= 310
 R261: - 14 x1,4_14 - p1 + p4 >= 0
 R262: 297 x1,4_14 - p1 + p4 <= 311
 R263: - 18 x1,4_18 - p1 + p4 >= 0
 R264: 297 x1,4_18 - p1 + p4 <= 315
 R265: - 20 x1,4_20 - p1 + p4 >= 0
 R266: 297 x1,4_20 - p1 + p4 <= 317
 R267: - 25 x1,4_25 - p1 + p4 >= 0
 R268: 297 x1,4_25 - p1 + p4 <= 322
 R269: - 31 x1,4_31 - p1 + p4 >= 0
 R270: 297 x1,4_31 - p1 + p4 <= 328
 R271: - 32 x1,4_32 - p1 + p4 >= 0
 R272: 297 x1,4_32 - p1 + p4 <= 329
 R273: - 34 x1,4_34 - p1 + p4 >= 0
 R274: 297 x1,4_34 - p1 + p4 <= 331
 R275: - 45 x1,4_45 - p1 + p4 >= 0
 R276: 297 x1,4_45 - p1 + p4 <= 342
 R277: p1 - p5 <= -1
 R278: - 2 x1,5_2 - p1 + p5 >= 0
 R279: 297 x1,5_2 - p1 + p5 <= 299
 R280: - 6 x1,5_6 - p1 + p5 >= 0
 R281: 297 x1,5_6 - p1 + p5 <= 303
 R282: - 11 x1,5_11 - p1 + p5 >= 0
 R283: 297 x1,5_11 - p1 + p5 <= 308
 R284: - 12 x1,5_12 - p1 + p5 >= 0
 R285: 297 x1,5_12 - p1 + p5 <= 309
 R286: - 13 x1,5_13 - p1 + p5 >= 0
 R287: 297 x1,5_13 - p1 + p5 <= 310
 R288: - 14 x1,5_14 - p1 + p5 >= 0
 R289: 297 x1,5_14 - p1 + p5 <= 311
 R290: - 18 x1,5_18 - p1 + p5 >= 0
 R291: 297 x1,5_18 - p1 + p5 <= 315
 R292: - 20 x1,5_20 - p1 + p5 >= 0
 R293: 297 x1,5_20 - p1 + p5 <= 317
 R294: - 25 x1,5_25 - p1 + p5 >= 0
 R295: 297 x1,5_25 - p1 + p5 <= 322
 R296: - 31 x1,5_31 - p1 + p5 >= 0
 R297: 297 x1,5_31 - p1 + p5 <= 328
 R298: - 32 x1,5_32 - p1 + p5 >= 0
 R299: 297 x1,5_32 - p1 + p5 <= 329
 R300: - 34 x1,5_34 - p1 + p5 >= 0
 R301: 297 x1,5_34 - p1 + p5 <= 331
 R302: - 45 x1,5_45 - p1 + p5 >= 0
 R303: 297 x1,5_45 - p1 + p5 <= 342
 R304: p1 - p6 <= -1
 R305: - 2 x1,6_2 - p1 + p6 >= 0
 R306: 297 x1,6_2 - p1 + p6 <= 299
 R307: - 6 x1,6_6 - p1 + p6 >= 0
 R308: 297 x1,6_6 - p1 + p6 <= 303
 R309: - 11 x1,6_11 - p1 + p6 >= 0
 R310: 297 x1,6_11 - p1 + p6 <= 308
 R311: - 12 x1,6_12 - p1 + p6 >= 0
 R312: 297 x1,6_12 - p1 + p6 <= 309
 R313: - 13 x1,6_13 - p1 + p6 >= 0
 R314: 297 x1,6_13 - p1 + p6 <= 310
 R315: - 14 x1,6_14 - p1 + p6 >= 0
 R316: 297 x1,6_14 - p1 + p6 <= 311
 R317: - 18 x1,6_18 - p1 + p6 >= 0
 R318: 297 x1,6_18 - p1 + p6 <= 315
 R319: - 20 x1,6_20 - p1 + p6 >= 0
 R320: 297 x1,6_20 - p1 + p6 <= 317
 R321: - 25 x1,6_25 - p1 + p6 >= 0
 R322: 297 x1,6_25 - p1 + p6 <= 322
 R323: - 31 x1,6_31 - p1 + p6 >= 0
 R324: 297 x1,6_31 - p1 + p6 <= 328
 R325: - 32 x1,6_32 - p1 + p6 >= 0
 R326: 297 x1,6_32 - p1 + p6 <= 329
 R327: - 34 x1,6_34 - p1 + p6 >= 0
 R328: 297 x1,6_34 - p1 + p6 <= 331
 R329: - 45 x1,6_45 - p1 + p6 >= 0
 R330: 297 x1,6_45 - p1 + p6 <= 342
 R331: p2 - p3 <= -1
 R332: - 2 x2,3_2 - p2 + p3 >= 0
 R333: 297 x2,3_2 - p2 + p3 <= 299
 R334: - 6 x2,3_6 - p2 + p3 >= 0
 R335: 297 x2,3_6 - p2 + p3 <= 303
 R336: - 11 x2,3_11 - p2 + p3 >= 0
 R337: 297 x2,3_11 - p2 + p3 <= 308
 R338: - 12 x2,3_12 - p2 + p3 >= 0
 R339: 297 x2,3_12 - p2 + p3 <= 309
 R340: - 13 x2,3_13 - p2 + p3 >= 0
 R341: 297 x2,3_13 - p2 + p3 <= 310
 R342: - 14 x2,3_14 - p2 + p3 >= 0
 R343: 297 x2,3_14 - p2 + p3 <= 311
 R344: - 18 x2,3_18 - p2 + p3 >= 0
 R345: 297 x2,3_18 - p2 + p3 <= 315
 R346: - 20 x2,3_20 - p2 + p3 >= 0
 R347: 297 x2,3_20 - p2 + p3 <= 317
 R348: - 25 x2,3_25 - p2 + p3 >= 0
 R349: 297 x2,3_25 - p2 + p3 <= 322
 R350: - 31 x2,3_31 - p2 + p3 >= 0
 R351: 297 x2,3_31 - p2 + p3 <= 328
 R352: - 32 x2,3_32 - p2 + p3 >= 0
 R353: 297 x2,3_32 - p2 + p3 <= 329
 R354: - 34 x2,3_34 - p2 + p3 >= 0
 R355: 297 x2,3_34 - p2 + p3 <= 331
 R356: - 45 x2,3_45 - p2 + p3 >= 0
 R357: 297 x2,3_45 - p2 + p3 <= 342
 R358: p2 - p4 <= -1
 R359: - 2 x2,4_2 - p2 + p4 >= 0
 R360: 297 x2,4_2 - p2 + p4 <= 299
 R361: - 6 x2,4_6 - p2 + p4 >= 0
 R362: 297 x2,4_6 - p2 + p4 <= 303
 R363: - 11 x2,4_11 - p2 + p4 >= 0
 R364: 297 x2,4_11 - p2 + p4 <= 308
 R365: - 12 x2,4_12 - p2 + p4 >= 0
 R366: 297 x2,4_12 - p2 + p4 <= 309
 R367: - 13 x2,4_13 - p2 + p4 >= 0
 R368: 297 x2,4_13 - p2 + p4 <= 310
 R369: - 14 x2,4_14 - p2 + p4 >= 0
 R370: 297 x2,4_14 - p2 + p4 <= 311
 R371: - 18 x2,4_18 - p2 + p4 >= 0
 R372: 297 x2,4_18 - p2 + p4 <= 315
 R373: - 20 x2,4_20 - p2 + p4 >= 0
 R374: 297 x2,4_20 - p2 + p4 <= 317
 R375: - 25 x2,4_25 - p2 + p4 >= 0
 R376: 297 x2,4_25 - p2 + p4 <= 322
 R377: - 31 x2,4_31 - p2 + p4 >= 0
 R378: 297 x2,4_31 - p2 + p4 <= 328
 R379: - 32 x2,4_32 - p2 + p4 >= 0
 R380: 297 x2,4_32 - p2 + p4 <= 329
 R381: - 34 x2,4_34 - p2 + p4 >= 0
 R382: 297 x2,4_34 - p2 + p4 <= 331
 R383: - 45 x2,4_45 - p2 + p4 >= 0
 R384: 297 x2,4_45 - p2 + p4 <= 342
 R385: p2 - p5 <= -1
 R386: - 2 x2,5_2 - p2 + p5 >= 0
 R387: 297 x2,5_2 - p2 + p5 <= 299
 R388: - 6 x2,5_6 - p2 + p5 >= 0
 R389: 297 x2,5_6 - p2 + p5 <= 303
 R390: - 11 x2,5_11 - p2 + p5 >= 0
 R391: 297 x2,5_11 - p2 + p5 <= 308
 R392: - 12 x2,5_12 - p2 + p5 >= 0
 R393: 297 x2,5_12 - p2 + p5 <= 309
 R394: - 13 x2,5_13 - p2 + p5 >= 0
 R395: 297 x2,5_13 - p2 + p5 <= 310
 R396: - 14 x2,5_14 - p2 + p5 >= 0
 R397: 297 x2,5_14 - p2 + p5 <= 311
 R398: - 18 x2,5_18 - p2 + p5 >= 0
 R399: 297 x2,5_18 - p2 + p5 <= 315
 R400: - 20 x2,5_20 - p2 + p5 >= 0
 R401: 297 x2,5_20 - p2 + p5 <= 317
 R402: - 25 x2,5_25 - p2 + p5 >= 0
 R403: 297 x2,5_25 - p2 + p5 <= 322
 R404: - 31 x2,5_31 - p2 + p5 >= 0
 R405: 297 x2,5_31 - p2 + p5 <= 328
 R406: - 32 x2,5_32 - p2 + p5 >= 0
 R407: 297 x2,5_32 - p2 + p5 <= 329
 R408: - 34 x2,5_34 - p2 + p5 >= 0
 R409: 297 x2,5_34 - p2 + p5 <= 331
 R410: - 45 x2,5_45 - p2 + p5 >= 0
 R411: 297 x2,5_45 - p2 + p5 <= 342
 R412: p2 - p6 <= -1
 R413: - 2 x2,6_2 - p2 + p6 >= 0
 R414: 297 x2,6_2 - p2 + p6 <= 299
 R415: - 6 x2,6_6 - p2 + p6 >= 0
 R416: 297 x2,6_6 - p2 + p6 <= 303
 R417: - 11 x2,6_11 - p2 + p6 >= 0
 R418: 297 x2,6_11 - p2 + p6 <= 308
 R419: - 12 x2,6_12 - p2 + p6 >= 0
 R420: 297 x2,6_12 - p2 + p6 <= 309
 R421: - 13 x2,6_13 - p2 + p6 >= 0
 R422: 297 x2,6_13 - p2 + p6 <= 310
 R423: - 14 x2,6_14 - p2 + p6 >= 0
 R424: 297 x2,6_14 - p2 + p6 <= 311
 R425: - 18 x2,6_18 - p2 + p6 >= 0
 R426: 297 x2,6_18 - p2 + p6 <= 315
 R427: - 20 x2,6_20 - p2 + p6 >= 0
 R428: 297 x2,6_20 - p2 + p6 <= 317
 R429: - 25 x2,6_25 - p2 + p6 >= 0
 R430: 297 x2,6_25 - p2 + p6 <= 322
 R431: - 31 x2,6_31 - p2 + p6 >= 0
 R432: 297 x2,6_31 - p2 + p6 <= 328
 R433: - 32 x2,6_32 - p2 + p6 >= 0
 R434: 297 x2,6_32 - p2 + p6 <= 329
 R435: - 34 x2,6_34 - p2 + p6 >= 0
 R436: 297 x2,6_34 - p2 + p6 <= 331
 R437: - 45 x2,6_45 - p2 + p6 >= 0
 R438: 297 x2,6_45 - p2 + p6 <= 342
 R439: p3 - p4 <= -1
 R440: - 2 x3,4_2 - p3 + p4 >= 0
 R441: 297 x3,4_2 - p3 + p4 <= 299
 R442: - 6 x3,4_6 - p3 + p4 >= 0
 R443: 297 x3,4_6 - p3 + p4 <= 303
 R444: - 11 x3,4_11 - p3 + p4 >= 0
 R445: 297 x3,4_11 - p3 + p4 <= 308
 R446: - 12 x3,4_12 - p3 + p4 >= 0
 R447: 297 x3,4_12 - p3 + p4 <= 309
 R448: - 13 x3,4_13 - p3 + p4 >= 0
 R449: 297 x3,4_13 - p3 + p4 <= 310
 R450: - 14 x3,4_14 - p3 + p4 >= 0
 R451: 297 x3,4_14 - p3 + p4 <= 311
 R452: - 18 x3,4_18 - p3 + p4 >= 0
 R453: 297 x3,4_18 - p3 + p4 <= 315
 R454: - 20 x3,4_20 - p3 + p4 >= 0
 R455: 297 x3,4_20 - p3 + p4 <= 317
 R456: - 25 x3,4_25 - p3 + p4 >= 0
 R457: 297 x3,4_25 - p3 + p4 <= 322
 R458: - 31 x3,4_31 - p3 + p4 >= 0
 R459: 297 x3,4_31 - p3 + p4 <= 328
 R460: - 32 x3,4_32 - p3 + p4 >= 0
 R461: 297 x3,4_32 - p3 + p4 <= 329
 R462: - 34 x3,4_34 - p3 + p4 >= 0
 R463: 297 x3,4_34 - p3 + p4 <= 331
 R464: - 45 x3,4_45 - p3 + p4 >= 0
 R465: 297 x3,4_45 - p3 + p4 <= 342
 R466: p3 - p5 <= -1
 R467: - 2 x3,5_2 - p3 + p5 >= 0
 R468: 297 x3,5_2 - p3 + p5 <= 299
 R469: - 6 x3,5_6 - p3 + p5 >= 0
 R470: 297 x3,5_6 - p3 + p5 <= 303
 R471: - 11 x3,5_11 - p3 + p5 >= 0
 R472: 297 x3,5_11 - p3 + p5 <= 308
 R473: - 12 x3,5_12 - p3 + p5 >= 0
 R474: 297 x3,5_12 - p3 + p5 <= 309
 R475: - 13 x3,5_13 - p3 + p5 >= 0
 R476: 297 x3,5_13 - p3 + p5 <= 310
 R477: - 14 x3,5_14 - p3 + p5 >= 0
 R478: 297 x3,5_14 - p3 + p5 <= 311
 R479: - 18 x3,5_18 - p3 + p5 >= 0
 R480: 297 x3,5_18 - p3 + p5 <= 315
 R481: - 20 x3,5_20 - p3 + p5 >= 0
 R482: 297 x3,5_20 - p3 + p5 <= 317
 R483: - 25 x3,5_25 - p3 + p5 >= 0
 R484: 297 x3,5_25 - p3 + p5 <= 322
 R485: - 31 x3,5_31 - p3 + p5 >= 0
 R486: 297 x3,5_31 - p3 + p5 <= 328
 R487: - 32 x3,5_32 - p3 + p5 >= 0
 R488: 297 x3,5_32 - p3 + p5 <= 329
 R489: - 34 x3,5_34 - p3 + p5 >= 0
 R490: 297 x3,5_34 - p3 + p5 <= 331
 R491: - 45 x3,5_45 - p3 + p5 >= 0
 R492: 297 x3,5_45 - p3 + p5 <= 342
 R493: p3 - p6 <= -1
 R494: - 2 x3,6_2 - p3 + p6 >= 0
 R495: 297 x3,6_2 - p3 + p6 <= 299
 R496: - 6 x3,6_6 - p3 + p6 >= 0
 R497: 297 x3,6_6 - p3 + p6 <= 303
 R498: - 11 x3,6_11 - p3 + p6 >= 0
 R499: 297 x3,6_11 - p3 + p6 <= 308
 R500: - 12 x3,6_12 - p3 + p6 >= 0
 R501: 297 x3,6_12 - p3 + p6 <= 309
 R502: - 13 x3,6_13 - p3 + p6 >= 0
 R503: 297 x3,6_13 - p3 + p6 <= 310
 R504: - 14 x3,6_14 - p3 + p6 >= 0
 R505: 297 x3,6_14 - p3 + p6 <= 311
 R506: - 18 x3,6_18 - p3 + p6 >= 0
 R507: 297 x3,6_18 - p3 + p6 <= 315
 R508: - 20 x3,6_20 - p3 + p6 >= 0
 R509: 297 x3,6_20 - p3 + p6 <= 317
 R510: - 25 x3,6_25 - p3 + p6 >= 0
 R511: 297 x3,6_25 - p3 + p6 <= 322
 R512: - 31 x3,6_31 - p3 + p6 >= 0
 R513: 297 x3,6_31 - p3 + p6 <= 328
 R514: - 32 x3,6_32 - p3 + p6 >= 0
 R515: 297 x3,6_32 - p3 + p6 <= 329
 R516: - 34 x3,6_34 - p3 + p6 >= 0
 R517: 297 x3,6_34 - p3 + p6 <= 331
 R518: - 45 x3,6_45 - p3 + p6 >= 0
 R519: 297 x3,6_45 - p3 + p6 <= 342
 R520: p4 - p5 <= -1
 R521: - 2 x4,5_2 - p4 + p5 >= 0
 R522: 297 x4,5_2 - p4 + p5 <= 299
 R523: - 6 x4,5_6 - p4 + p5 >= 0
 R524: 297 x4,5_6 - p4 + p5 <= 303
 R525: - 11 x4,5_11 - p4 + p5 >= 0
 R526: 297 x4,5_11 - p4 + p5 <= 308
 R527: - 12 x4,5_12 - p4 + p5 >= 0
 R528: 297 x4,5_12 - p4 + p5 <= 309
 R529: - 13 x4,5_13 - p4 + p5 >= 0
 R530: 297 x4,5_13 - p4 + p5 <= 310
 R531: - 14 x4,5_14 - p4 + p5 >= 0
 R532: 297 x4,5_14 - p4 + p5 <= 311
 R533: - 18 x4,5_18 - p4 + p5 >= 0
 R534: 297 x4,5_18 - p4 + p5 <= 315
 R535: - 20 x4,5_20 - p4 + p5 >= 0
 R536: 297 x4,5_20 - p4 + p5 <= 317
 R537: - 25 x4,5_25 - p4 + p5 >= 0
 R538: 297 x4,5_25 - p4 + p5 <= 322
 R539: - 31 x4,5_31 - p4 + p5 >= 0
 R540: 297 x4,5_31 - p4 + p5 <= 328
 R541: - 32 x4,5_32 - p4 + p5 >= 0
 R542: 297 x4,5_32 - p4 + p5 <= 329
 R543: - 34 x4,5_34 - p4 + p5 >= 0
 R544: 297 x4,5_34 - p4 + p5 <= 331
 R545: - 45 x4,5_45 - p4 + p5 >= 0
 R546: 297 x4,5_45 - p4 + p5 <= 342
 R547: p4 - p6 <= -1
 R548: - 2 x4,6_2 - p4 + p6 >= 0
 R549: 297 x4,6_2 - p4 + p6 <= 299
 R550: - 6 x4,6_6 - p4 + p6 >= 0
 R551: 297 x4,6_6 - p4 + p6 <= 303
 R552: - 11 x4,6_11 - p4 + p6 >= 0
 R553: 297 x4,6_11 - p4 + p6 <= 308
 R554: - 12 x4,6_12 - p4 + p6 >= 0
 R555: 297 x4,6_12 - p4 + p6 <= 309
 R556: - 13 x4,6_13 - p4 + p6 >= 0
 R557: 297 x4,6_13 - p4 + p6 <= 310
 R558: - 14 x4,6_14 - p4 + p6 >= 0
 R559: 297 x4,6_14 - p4 + p6 <= 311
 R560: - 18 x4,6_18 - p4 + p6 >= 0
 R561: 297 x4,6_18 - p4 + p6 <= 315
 R562: - 20 x4,6_20 - p4 + p6 >= 0
 R563: 297 x4,6_20 - p4 + p6 <= 317
 R564: - 25 x4,6_25 - p4 + p6 >= 0
 R565: 297 x4,6_25 - p4 + p6 <= 322
 R566: - 31 x4,6_31 - p4 + p6 >= 0
 R567: 297 x4,6_31 - p4 + p6 <= 328
 R568: - 32 x4,6_32 - p4 + p6 >= 0
 R569: 297 x4,6_32 - p4 + p6 <= 329
 R570: - 34 x4,6_34 - p4 + p6 >= 0
 R571: 297 x4,6_34 - p4 + p6 <= 331
 R572: - 45 x4,6_45 - p4 + p6 >= 0
 R573: 297 x4,6_45 - p4 + p6 <= 342
 R574: p5 - p6 <= -1
 R575: - 2 x5,6_2 - p5 + p6 >= 0
 R576: 297 x5,6_2 - p5 + p6 <= 299
 R577: - 6 x5,6_6 - p5 + p6 >= 0
 R578: 297 x5,6_6 - p5 + p6 <= 303
 R579: - 11 x5,6_11 - p5 + p6 >= 0
 R580: 297 x5,6_11 - p5 + p6 <= 308
 R581: - 12 x5,6_12 - p5 + p6 >= 0
 R582: 297 x5,6_12 - p5 + p6 <= 309
 R583: - 13 x5,6_13 - p5 + p6 >= 0
 R584: 297 x5,6_13 - p5 + p6 <= 310
 R585: - 14 x5,6_14 - p5 + p6 >= 0
 R586: 297 x5,6_14 - p5 + p6 <= 311
 R587: - 18 x5,6_18 - p5 + p6 >= 0
 R588: 297 x5,6_18 - p5 + p6 <= 315
 R589: - 20 x5,6_20 - p5 + p6 >= 0
 R590: 297 x5,6_20 - p5 + p6 <= 317
 R591: - 25 x5,6_25 - p5 + p6 >= 0
 R592: 297 x5,6_25 - p5 + p6 <= 322
 R593: - 31 x5,6_31 - p5 + p6 >= 0
 R594: 297 x5,6_31 - p5 + p6 <= 328
 R595: - 32 x5,6_32 - p5 + p6 >= 0
 R596: 297 x5,6_32 - p5 + p6 <= 329
 R597: - 34 x5,6_34 - p5 + p6 >= 0
 R598: 297 x5,6_34 - p5 + p6 <= 331
 R599: - 45 x5,6_45 - p5 + p6 >= 0
 R600: 297 x5,6_45 - p5 + p6 <= 342
Bounds
Binaries
 x0,1_2 x0,1_6 x0,1_11 x0,1_12 x0,1_13 x0,1_14 x0,1_18 x0,1_20 x0,1_25
 x0,1_31 x0,1_32 x0,1_34 x0,1_45 x0,2_2 x0,2_6 x0,2_11 x0,2_12 x0,2_13
 x0,2_14 x0,2_18 x0,2_20 x0,2_25 x0,2_31 x0,2_32 x0,2_34 x0,2_45 x0,3_2
 x0,3_6 x0,3_11 x0,3_12 x0,3_13 x0,3_14 x0,3_18 x0,3_20 x0,3_25 x0,3_31
 x0,3_32 x0,3_34 x0,3_45 x0,4_2 x0,4_6 x0,4_11 x0,4_12 x0,4_13 x0,4_14
 x0,4_18 x0,4_20 x0,4_25 x0,4_31 x0,4_32 x0,4_34 x0,4_45 x0,5_2 x0,5_6
 x0,5_11 x0,5_12 x0,5_13 x0,5_14 x0,5_18 x0,5_20 x0,5_25 x0,5_31 x0,5_32
 x0,5_34 x0,5_45 x0,6_2 x0,6_6 x0,6_11 x0,6_12 x0,6_13 x0,6_14 x0,6_18
 x0,6_20 x0,6_25 x0,6_31 x0,6_32 x0,6_34 x0,6_45 x1,2_2 x1,2_6 x1,2_11
 x1,2_12 x1,2_13 x1,2_14 x1,2_18 x1,2_20 x1,2_25 x1,2_31 x1,2_32 x1,2_34
 x1,2_45 x1,3_2 x1,3_6 x1,3_11 x1,3_12 x1,3_13 x1,3_14 x1,3_18 x1,3_20
 x1,3_25 x1,3_31 x1,3_32 x1,3_34 x1,3_45 x1,4_2 x1,4_6 x1,4_11 x1,4_12
 x1,4_13 x1,4_14 x1,4_18 x1,4_20 x1,4_25 x1,4_31 x1,4_32 x1,4_34 x1,4_45
 x1,5_2 x1,5_6 x1,5_11 x1,5_12 x1,5_13 x1,5_14 x1,5_18 x1,5_20 x1,5_25
 x1,5_31 x1,5_32 x1,5_34 x1,5_45 x1,6_2 x1,6_6 x1,6_11 x1,6_12 x1,6_13
 x1,6_14 x1,6_18 x1,6_20 x1,6_25 x1,6_31 x1,6_32 x1,6_34 x1,6_45 x2,3_2
 x2,3_6 x2,3_11 x2,3_12 x2,3_13 x2,3_14 x2,3_18 x2,3_20 x2,3_25 x2,3_31
 x2,3_32 x2,3_34 x2,3_45 x2,4_2 x2,4_6 x2,4_11 x2,4_12 x2,4_13 x2,4_14
 x2,4_18 x2,4_20 x2,4_25 x2,4_31 x2,4_32 x2,4_34 x2,4_45 x2,5_2 x2,5_6
 x2,5_11 x2,5_12 x2,5_13 x2,5_14 x2,5_18 x2,5_20 x2,5_25 x2,5_31 x2,5_32
 x2,5_34 x2,5_45 x2,6_2 x2,6_6 x2,6_11 x2,6_12 x2,6_13 x2,6_14 x2,6_18
 x2,6_20 x2,6_25 x2,6_31 x2,6_32 x2,6_34 x2,6_45 x3,4_2 x3,4_6 x3,4_11
 x3,4_12 x3,4_13 x3,4_14 x3,4_18 x3,4_20 x3,4_25 x3,4_31 x3,4_32 x3,4_34
 x3,4_45 x3,5_2 x3,5_6 x3,5_11 x3,5_12 x3,5_13 x3,5_14 x3,5_18 x3,5_20
 x3,5_25 x3,5_31 x3,5_32 x3,5_34 x3,5_45 x3,6_2 x3,6_6 x3,6_11 x3,6_12
 x3,6_13 x3,6_14 x3,6_18 x3,6_20 x3,6_25 x3,6_31 x3,6_32 x3,6_34 x3,6_45
 x4,5_2 x4,5_6 x4,5_11 x4,5_12 x4,5_13 x4,5_14 x4,5_18 x4,5_20 x4,5_25
 x4,5_31 x4,5_32 x4,5_34 x4,5_45 x4,6_2 x4,6_6 x4,6_11 x4,6_12 x4,6_13
 x4,6_14 x4,6_18 x4,6_20 x4,6_25 x4,6_31 x4,6_32 x4,6_34 x4,6_45 x5,6_2
 x5,6_6 x5,6_11 x5,6_12 x5,6_13 x5,6_14 x5,6_18 x5,6_20 x5,6_25 x5,6_31
 x5,6_32 x5,6_34 x5,6_45
Generals
 p0 p1 p2 p3 p4 p5 p6
End
